Problem:    ParteB
Rows:       12
Columns:    10 (10 integer, 0 binary)
Non-zeros:  24
Status:     INTEGER OPTIMAL
Objective:  z = 11550000 (MAXimum)

   No.   Row name        Activity     Lower bound   Upper bound
------ ------------    ------------- ------------- -------------
     1 z                   1.155e+07                             
     2 predio                   8000                        8000 
     3 ubicacionesVip
                                   0            -0             = 
     4 minProtocolo              100           100               
     5 minGenerales              500           500               
     6 maxPaquetes               500                         800 
     7 paquetesTotales
                                   0            -0             = 
     8 paqueteVip                  0            -0               
     9 paqueteGeneral
                                   0            -0               
    10 ubicEntrVipProto
                                   0            -0             = 
    11 ubicEntrVipComun
                                   0            -0             = 
    12 ubicGeneral                 0            -0             = 

   No. Column name       Activity     Lower bound   Upper bound
------ ------------    ------------- ------------- -------------
     1 V            *           7500             0               
     2 Vc           *           7400             0               
     3 Vp           *            100             0               
     4 G            *            500             0               
     5 Evc          *           7400             0               
     6 Evp          *            100             0               
     7 Eg           *           1000             0               
     8 P            *            500             0               
     9 Pv           *            375             0               
    10 Pg           *            125             0               

Integer feasibility conditions:

KKT.PE: max.abs.err = 0.00e+00 on row 0
        max.rel.err = 0.00e+00 on row 0
        High quality

KKT.PB: max.abs.err = 0.00e+00 on row 0
        max.rel.err = 0.00e+00 on row 0
        High quality

End of output
